Welcome to the CBC MILP Solver 
Version: 2.10.3 
Build Date: Dec 15 2019 

command line - C:\Users\YEO Nadege\AppData\Local\Packages\PythonSoftwareFoundation.Python.3.9_qbz5n2kfra8p0\LocalCache\local-packages\Python39\site-packages\pulp\apis\..\solverdir\cbc\win\64\cbc.exe C:\PROGRA~1\KMSpico\temp\50ff5c897b77471694f6738d66687d81-pulp.mps max timeMode elapsed branch printingOptions all solution C:\PROGRA~1\KMSpico\temp\50ff5c897b77471694f6738d66687d81-pulp.sol (default strategy 1)
At line 2 NAME          MODEL
At line 3 ROWS
At line 14 COLUMNS
At line 60 RHS
At line 70 BOUNDS
At line 80 ENDATA
Problem MODEL has 9 rows, 9 columns and 18 elements
Coin0008I MODEL read with 0 errors
Option for timeMode changed from cpu to elapsed
Continuous objective value is 32 - 0.00 seconds
Cgl0004I processed model has 7 rows, 9 columns (9 integer (0 of which binary)) and 15 elements
Cutoff increment increased from 1e-05 to 0.9999
Cbc0012I Integer solution of -32 found by DiveCoefficient after 0 iterations and 0 nodes (0.00 seconds)
Cbc0001I Search completed - best objective -32, took 0 iterations and 0 nodes (0.00 seconds)
Cbc0035I Maximum depth 0, 0 variables fixed on reduced cost
Cuts at root node changed objective from -32 to -32
Probing was tried 0 times and created 0 cuts of which 0 were active after adding rounds of cuts (0.000 seconds)
Gomory was tried 0 times and created 0 cuts of which 0 were active after adding rounds of cuts (0.000 seconds)
Knapsack was tried 0 times and created 0 cuts of which 0 were active after adding rounds of cuts (0.000 seconds)
Clique was tried 0 times and created 0 cuts of which 0 were active after adding rounds of cuts (0.000 seconds)
MixedIntegerRounding2 was tried 0 times and created 0 cuts of which 0 were active after adding rounds of cuts (0.000 seconds)
FlowCover was tried 0 times and created 0 cuts of which 0 were active after adding rounds of cuts (0.000 seconds)
TwoMirCuts was tried 0 times and created 0 cuts of which 0 were active after adding rounds of cuts (0.000 seconds)
ZeroHalf was tried 0 times and created 0 cuts of which 0 were active after adding rounds of cuts (0.000 seconds)

Result - Optimal solution found

Objective value:                32.00000000
Enumerated nodes:               0
Total iterations:               0
Time (CPU seconds):             0.00
Time (Wallclock seconds):       0.00

Option for printingOptions changed from normal to all
Total time (CPU seconds):       0.00   (Wallclock seconds):       0.00

